(set-logic QF_S)
(declare-fun var0 () String)
(assert (str.in.re var0 (re.++ (re.* (re.union (str.to.re "00") (str.to.re "111"))) (re.++ (re.+ (re.* (str.to.re "22"))) (re.++ (re.* (re.* (str.to.re "333"))) (re.++ (re.* (re.* (str.to.re "4"))) (re.++ (re.union (re.union (str.to.re "5") (str.to.re "66")) (re.union (str.to.re "7") (str.to.re "88"))) (re.++ (re.union (re.union (str.to.re "9") (str.to.re "aa")) (re.union (str.to.re "bbb") (str.to.re "ccc"))) (re.++ (re.* (re.+ (str.to.re "dd"))) (re.++ (re.+ (re.union (str.to.re "eee") (str.to.re "f"))) (re.++ (re.union (re.+ (str.to.re "ggg")) (re.+ (str.to.re "hhh"))) (re.* (re.* (str.to.re "ii"))))))))))))))
(assert (<= 451 (str.len var0)))
(check-sat)